c K to QBF translator. (C)Rice University.
c From input file 6-15.lwb
p cnf 641 1666
e 641 1 640 0
a 148 0
e 179 639 6 5 4 3 2 182 638 0
a 149 150 0
e 185 637 15 14 13 12 11 10 9 8 7 191 194 197 199 200 636 0
a 151 152 0
e 204 635 25 24 23 22 21 20 19 18 17 16 210 213 216 219 222 224 226 227 634 0
a 153 154 0
e 231 633 35 34 33 32 31 30 29 28 27 26 234 240 243 246 249 252 254 256 257 632 0
a 155 156 0
e 261 631 45 44 43 42 41 40 39 38 37 36 264 270 273 276 279 282 284 286 287 630 0
a 157 158 0
e 291 629 55 54 53 52 51 50 49 48 47 46 294 300 303 306 309 312 314 316 317 628 0
a 159 160 0
e 321 627 65 64 63 62 61 60 59 58 57 56 324 330 333 336 339 342 344 346 347 626 0
a 161 162 0
e 351 625 79 78 77 76 75 74 73 72 71 70 69 68 67 66 354 362 365 368 371 374 377 379 380 624 0
a 163 164 165 0
e 385 623 91 90 89 88 87 86 85 84 83 82 81 80 388 394 397 400 403 406 409 412 415 418 420 422 423 622 0
a 166 167 0
e 427 621 101 100 99 98 97 96 95 94 93 92 430 436 440 443 446 449 452 455 458 460 461 620 0
a 168 169 0
e 465 619 110 109 108 107 106 105 104 103 102 468 474 477 480 483 486 489 491 492 618 0
a 170 171 0
e 495 617 119 118 117 116 115 114 113 112 111 498 504 507 510 513 516 518 519 616 0
a 172 173 0
e 522 615 128 127 126 125 124 123 122 121 120 525 531 534 537 540 543 545 546 614 0
a 174 175 0
e 549 613 137 136 135 134 133 132 131 130 129 552 558 561 564 567 570 572 573 612 0
a 176 177 0
e 576 611 143 142 141 140 139 138 579 582 585 588 591 594 596 597 610 0
a 178 0
e 598 609 146 145 144 599 601 603 605 606 608 147 607 604 602 600 595 592 593 590 589 587 586 584 583 581 580 578 577 574 575 571 568 569 566 565 563 562 560 559 554 557 555 556 553 551 550 547 548 544 541 542 539 538 536 535 533 532 527 530 528 529 526 524 523 520 521 517 514 515 512 511 509 508 506 505 500 503 501 502 499 497 496 493 494 490 487 488 484 485 482 481 479 478 476 475 470 473 471 472 469 467 466 462 463 464 459 456 457 453 454 451 450 448 447 445 444 442 441 438 439 437 432 435 433 434 431 429 428 424 425 426 421 419 416 417 413 414 411 410 408 407 405 404 402 401 399 398 396 395 390 393 391 392 389 387 386 381 382 383 384 378 375 376 372 373 370 369 367 366 364 363 356 361 357 358 359 360 355 353 352 348 349 350 345 343 340 341 338 337 335 334 332 331 326 329 327 328 325 323 322 318 319 320 315 313 310 311 308 307 305 304 302 301 296 299 297 298 295 293 292 288 289 290 285 283 280 281 278 277 275 274 272 271 266 269 267 268 265 263 262 258 259 260 255 253 250 251 248 247 245 244 242 241 236 239 237 238 235 233 232 228 229 230 225 223 220 221 218 217 215 214 212 211 206 209 207 208 205 201 202 203 198 195 196 193 192 187 190 188 189 186 183 184 181 180 0
641  0 
641 -640 -1  0 
640 -641  0 
1 -641  0 
-640 179 639  0 
-179 640  0 
-639 640  0 
-179 -148 -1  0 
148 179  0 
1 179  0 
639 -182 -638  0 
182 -639  0 
638 -639  0 
-182 -148 181  0 
148 182  0 
-181 182  0 
181 -5 -2 -180  0 
5 -181  0 
2 -181  0 
180 -181  0 
-180 3 4 6  0 
-3 180  0 
-4 180  0 
-6 180  0 
-638 185 637  0 
-185 638  0 
-637 638  0 
185 -183 -184  0 
183 -185  0 
184 -185  0 
-183 -3 149 -150  0 
3 183  0 
-149 183  0 
150 183  0 
-184 -2 -149 -150  0 
2 184  0 
149 184  0 
150 184  0 
637 -191 -194 -197 -199 -200 -636  0 
191 -637  0 
194 -637  0 
197 -637  0 
199 -637  0 
200 -637  0 
636 -637  0 
-191 187 190  0 
-187 191  0 
-190 191  0 
-187 -5 186  0 
5 187  0 
-186 187  0 
186 3 2  0 
-3 -186  0 
-2 -186  0 
190 -13 -188 -189  0 
13 -190  0 
188 -190  0 
189 -190  0 
-188 8 11  0 
-8 188  0 
-11 188  0 
-189 9 10 15  0 
-9 189  0 
-10 189  0 
-15 189  0 
-194 193 8  0 
-193 194  0 
-8 194  0 
-193 -4 192  0 
4 193  0 
-192 193  0 
192 3 2  0 
-3 -192  0 
-2 -192  0 
-197 195 196  0 
-195 197  0 
-196 197  0 
-195 149 -150  0 
-149 195  0 
150 195  0 
196 -12 -14  0 
12 -196  0 
14 -196  0 
-199 198 7  0 
-198 199  0 
-7 199  0 
-198 -149 -150  0 
149 198  0 
150 198  0 
-200 -14 -15  0 
14 200  0 
15 200  0 
-636 204 635  0 
-204 636  0 
-635 636  0 
204 -201 -202 -203  0 
201 -204  0 
202 -204  0 
203 -204  0 
-201 -9 -151 152  0 
9 201  0 
151 201  0 
-152 201  0 
-202 -8 151 -152  0 
8 202  0 
-151 202  0 
152 202  0 
-203 -7 -151 -152  0 
7 203  0 
151 203  0 
152 203  0 
635 -210 -213 -216 -219 -222 -224 -226 -227 -634  0 
210 -635  0 
213 -635  0 
216 -635  0 
219 -635  0 
222 -635  0 
224 -635  0 
226 -635  0 
227 -635  0 
634 -635  0 
-210 206 209  0 
-206 210  0 
-209 210  0 
-206 -13 205  0 
13 206  0 
-205 206  0 
205 9 8 7  0 
-9 -205  0 
-8 -205  0 
-7 -205  0 
209 -22 -207 -208  0 
22 -209  0 
207 -209  0 
208 -209  0 
-207 17 20  0 
-17 207  0 
-20 207  0 
-208 18 19 25  0 
-18 208  0 
-19 208  0 
-25 208  0 
-213 212 24 23  0 
-212 213  0 
-24 213  0 
-23 213  0 
-212 -12 211  0 
12 212  0 
-211 212  0 
211 9 8 7  0 
-9 -211  0 
-8 -211  0 
-7 -211  0 
-216 215 23  0 
-215 216  0 
-23 216  0 
-215 -11 214  0 
11 215  0 
-214 215  0 
214 9 8 7  0 
-9 -214  0 
-8 -214  0 
-7 -214  0 
-219 218 17  0 
-218 219  0 
-17 219  0 
-218 -10 217  0 
10 218  0 
-217 218  0 
217 9 8 7  0 
-9 -217  0 
-8 -217  0 
-7 -217  0 
-222 220 221  0 
-220 222  0 
-221 222  0 
-220 -151 152  0 
151 220  0 
-152 220  0 
221 -21 -24  0 
21 -221  0 
24 -221  0 
-224 223 24  0 
-223 224  0 
-24 224  0 
-223 151 -152  0 
-151 223  0 
152 223  0 
-226 225 16  0 
-225 226  0 
-16 226  0 
-225 -151 -152  0 
151 225  0 
152 225  0 
-227 -24 -25  0 
24 227  0 
25 227  0 
-634 231 633  0 
-231 634  0 
-633 634  0 
231 -228 -229 -230  0 
228 -231  0 
229 -231  0 
230 -231  0 
-228 -18 -153 154  0 
18 228  0 
153 228  0 
-154 228  0 
-229 -17 153 -154  0 
17 229  0 
-153 229  0 
154 229  0 
-230 -16 -153 -154  0 
16 230  0 
153 230  0 
154 230  0 
633 -234 -240 -243 -246 -249 -252 -254 -256 -257 -632  0 
234 -633  0 
240 -633  0 
243 -633  0 
246 -633  0 
249 -633  0 
252 -633  0 
254 -633  0 
256 -633  0 
257 -633  0 
632 -633  0 
-234 233 35  0 
-233 234  0 
-35 234  0 
-233 -23 232  0 
23 233  0 
-232 233  0 
232 18 17 16  0 
-18 -232  0 
-17 -232  0 
-16 -232  0 
-240 236 239  0 
-236 240  0 
-239 240  0 
-236 -22 235  0 
22 236  0 
-235 236  0 
235 18 17 16  0 
-18 -235  0 
-17 -235  0 
-16 -235  0 
239 -32 -237 -238  0 
32 -239  0 
237 -239  0 
238 -239  0 
-237 27 30  0 
-27 237  0 
-30 237  0 
-238 28 29 35  0 
-28 238  0 
-29 238  0 
-35 238  0 
-243 242 34 33  0 
-242 243  0 
-34 243  0 
-33 243  0 
-242 -21 241  0 
21 242  0 
-241 242  0 
241 18 17 16  0 
-18 -241  0 
-17 -241  0 
-16 -241  0 
-246 245 33  0 
-245 246  0 
-33 246  0 
-245 -20 244  0 
20 245  0 
-244 245  0 
244 18 17 16  0 
-18 -244  0 
-17 -244  0 
-16 -244  0 
-249 248 27  0 
-248 249  0 
-27 249  0 
-248 -19 247  0 
19 248  0 
-247 248  0 
247 18 17 16  0 
-18 -247  0 
-17 -247  0 
-16 -247  0 
-252 250 251  0 
-250 252  0 
-251 252  0 
-250 -153 154  0 
153 250  0 
-154 250  0 
251 -31 -34  0 
31 -251  0 
34 -251  0 
-254 253 34  0 
-253 254  0 
-34 254  0 
-253 153 -154  0 
-153 253  0 
154 253  0 
-256 255 26  0 
-255 256  0 
-26 256  0 
-255 -153 -154  0 
153 255  0 
154 255  0 
-257 -34 -35  0 
34 257  0 
35 257  0 
-632 261 631  0 
-261 632  0 
-631 632  0 
261 -258 -259 -260  0 
258 -261  0 
259 -261  0 
260 -261  0 
-258 -28 -155 156  0 
28 258  0 
155 258  0 
-156 258  0 
-259 -27 155 -156  0 
27 259  0 
-155 259  0 
156 259  0 
-260 -26 -155 -156  0 
26 260  0 
155 260  0 
156 260  0 
631 -264 -270 -273 -276 -279 -282 -284 -286 -287 -630  0 
264 -631  0 
270 -631  0 
273 -631  0 
276 -631  0 
279 -631  0 
282 -631  0 
284 -631  0 
286 -631  0 
287 -631  0 
630 -631  0 
-264 263 45  0 
-263 264  0 
-45 264  0 
-263 -33 262  0 
33 263  0 
-262 263  0 
262 28 27 26  0 
-28 -262  0 
-27 -262  0 
-26 -262  0 
-270 266 269  0 
-266 270  0 
-269 270  0 
-266 -32 265  0 
32 266  0 
-265 266  0 
265 28 27 26  0 
-28 -265  0 
-27 -265  0 
-26 -265  0 
269 -42 -267 -268  0 
42 -269  0 
267 -269  0 
268 -269  0 
-267 37 40  0 
-37 267  0 
-40 267  0 
-268 38 39 45  0 
-38 268  0 
-39 268  0 
-45 268  0 
-273 272 44 43  0 
-272 273  0 
-44 273  0 
-43 273  0 
-272 -31 271  0 
31 272  0 
-271 272  0 
271 28 27 26  0 
-28 -271  0 
-27 -271  0 
-26 -271  0 
-276 275 43  0 
-275 276  0 
-43 276  0 
-275 -30 274  0 
30 275  0 
-274 275  0 
274 28 27 26  0 
-28 -274  0 
-27 -274  0 
-26 -274  0 
-279 278 37  0 
-278 279  0 
-37 279  0 
-278 -29 277  0 
29 278  0 
-277 278  0 
277 28 27 26  0 
-28 -277  0 
-27 -277  0 
-26 -277  0 
-282 280 281  0 
-280 282  0 
-281 282  0 
-280 -155 156  0 
155 280  0 
-156 280  0 
281 -41 -44  0 
41 -281  0 
44 -281  0 
-284 283 44  0 
-283 284  0 
-44 284  0 
-283 155 -156  0 
-155 283  0 
156 283  0 
-286 285 36  0 
-285 286  0 
-36 286  0 
-285 -155 -156  0 
155 285  0 
156 285  0 
-287 -44 -45  0 
44 287  0 
45 287  0 
-630 291 629  0 
-291 630  0 
-629 630  0 
291 -288 -289 -290  0 
288 -291  0 
289 -291  0 
290 -291  0 
-288 -38 -157 158  0 
38 288  0 
157 288  0 
-158 288  0 
-289 -37 157 -158  0 
37 289  0 
-157 289  0 
158 289  0 
-290 -36 -157 -158  0 
36 290  0 
157 290  0 
158 290  0 
629 -294 -300 -303 -306 -309 -312 -314 -316 -317 -628  0 
294 -629  0 
300 -629  0 
303 -629  0 
306 -629  0 
309 -629  0 
312 -629  0 
314 -629  0 
316 -629  0 
317 -629  0 
628 -629  0 
-294 293 55  0 
-293 294  0 
-55 294  0 
-293 -43 292  0 
43 293  0 
-292 293  0 
292 38 37 36  0 
-38 -292  0 
-37 -292  0 
-36 -292  0 
-300 296 299  0 
-296 300  0 
-299 300  0 
-296 -42 295  0 
42 296  0 
-295 296  0 
295 38 37 36  0 
-38 -295  0 
-37 -295  0 
-36 -295  0 
299 -52 -297 -298  0 
52 -299  0 
297 -299  0 
298 -299  0 
-297 47 50  0 
-47 297  0 
-50 297  0 
-298 48 49 55  0 
-48 298  0 
-49 298  0 
-55 298  0 
-303 302 54 53  0 
-302 303  0 
-54 303  0 
-53 303  0 
-302 -41 301  0 
41 302  0 
-301 302  0 
301 38 37 36  0 
-38 -301  0 
-37 -301  0 
-36 -301  0 
-306 305 53  0 
-305 306  0 
-53 306  0 
-305 -40 304  0 
40 305  0 
-304 305  0 
304 38 37 36  0 
-38 -304  0 
-37 -304  0 
-36 -304  0 
-309 308 47  0 
-308 309  0 
-47 309  0 
-308 -39 307  0 
39 308  0 
-307 308  0 
307 38 37 36  0 
-38 -307  0 
-37 -307  0 
-36 -307  0 
-312 310 311  0 
-310 312  0 
-311 312  0 
-310 -157 158  0 
157 310  0 
-158 310  0 
311 -51 -54  0 
51 -311  0 
54 -311  0 
-314 313 54  0 
-313 314  0 
-54 314  0 
-313 157 -158  0 
-157 313  0 
158 313  0 
-316 315 46  0 
-315 316  0 
-46 316  0 
-315 -157 -158  0 
157 315  0 
158 315  0 
-317 -54 -55  0 
54 317  0 
55 317  0 
-628 321 627  0 
-321 628  0 
-627 628  0 
321 -318 -319 -320  0 
318 -321  0 
319 -321  0 
320 -321  0 
-318 -48 -159 160  0 
48 318  0 
159 318  0 
-160 318  0 
-319 -47 159 -160  0 
47 319  0 
-159 319  0 
160 319  0 
-320 -46 -159 -160  0 
46 320  0 
159 320  0 
160 320  0 
627 -324 -330 -333 -336 -339 -342 -344 -346 -347 -626  0 
324 -627  0 
330 -627  0 
333 -627  0 
336 -627  0 
339 -627  0 
342 -627  0 
344 -627  0 
346 -627  0 
347 -627  0 
626 -627  0 
-324 323 65  0 
-323 324  0 
-65 324  0 
-323 -53 322  0 
53 323  0 
-322 323  0 
322 48 47 46  0 
-48 -322  0 
-47 -322  0 
-46 -322  0 
-330 326 329  0 
-326 330  0 
-329 330  0 
-326 -52 325  0 
52 326  0 
-325 326  0 
325 48 47 46  0 
-48 -325  0 
-47 -325  0 
-46 -325  0 
329 -62 -327 -328  0 
62 -329  0 
327 -329  0 
328 -329  0 
-327 56 60  0 
-56 327  0 
-60 327  0 
-328 58 59 65  0 
-58 328  0 
-59 328  0 
-65 328  0 
-333 332 64 63  0 
-332 333  0 
-64 333  0 
-63 333  0 
-332 -51 331  0 
51 332  0 
-331 332  0 
331 48 47 46  0 
-48 -331  0 
-47 -331  0 
-46 -331  0 
-336 335 63  0 
-335 336  0 
-63 336  0 
-335 -50 334  0 
50 335  0 
-334 335  0 
334 48 47 46  0 
-48 -334  0 
-47 -334  0 
-46 -334  0 
-339 338 56  0 
-338 339  0 
-56 339  0 
-338 -49 337  0 
49 338  0 
-337 338  0 
337 48 47 46  0 
-48 -337  0 
-47 -337  0 
-46 -337  0 
-342 340 341  0 
-340 342  0 
-341 342  0 
-340 -159 160  0 
159 340  0 
-160 340  0 
341 -61 -64  0 
61 -341  0 
64 -341  0 
-344 343 64  0 
-343 344  0 
-64 344  0 
-343 159 -160  0 
-159 343  0 
160 343  0 
-346 345 57  0 
-345 346  0 
-57 346  0 
-345 -159 -160  0 
159 345  0 
160 345  0 
-347 -64 -65  0 
64 347  0 
65 347  0 
-626 351 625  0 
-351 626  0 
-625 626  0 
351 -348 -349 -350  0 
348 -351  0 
349 -351  0 
350 -351  0 
-348 -58 -161 162  0 
58 348  0 
161 348  0 
-162 348  0 
-349 -57 161 -162  0 
57 349  0 
-161 349  0 
162 349  0 
-350 -56 -161 -162  0 
56 350  0 
161 350  0 
162 350  0 
625 -354 -362 -365 -368 -371 -374 -377 -379 -380 -624  0 
354 -625  0 
362 -625  0 
365 -625  0 
368 -625  0 
371 -625  0 
374 -625  0 
377 -625  0 
379 -625  0 
380 -625  0 
624 -625  0 
-354 353 79  0 
-353 354  0 
-79 354  0 
-353 -63 352  0 
63 353  0 
-352 353  0 
352 58 57 56  0 
-58 -352  0 
-57 -352  0 
-56 -352  0 
-362 356 361  0 
-356 362  0 
-361 362  0 
-356 -62 355  0 
62 356  0 
-355 356  0 
355 58 57 56  0 
-58 -355  0 
-57 -355  0 
-56 -355  0 
361 -76 -357 -358 -359 -360  0 
76 -361  0 
357 -361  0 
358 -361  0 
359 -361  0 
360 -361  0 
-357 67 73  0 
-67 357  0 
-73 357  0 
-358 69 71 78 77  0 
-69 358  0 
-71 358  0 
-78 358  0 
-77 358  0 
-359 68 70 79  0 
-68 359  0 
-70 359  0 
-79 359  0 
-360 68 72  0 
-68 360  0 
-72 360  0 
-365 364 78 77  0 
-364 365  0 
-78 365  0 
-77 365  0 
-364 -61 363  0 
61 364  0 
-363 364  0 
363 58 57 56  0 
-58 -363  0 
-57 -363  0 
-56 -363  0 
-368 367 77  0 
-367 368  0 
-77 368  0 
-367 -60 366  0 
60 367  0 
-366 367  0 
366 58 57 56  0 
-58 -366  0 
-57 -366  0 
-56 -366  0 
-371 370 67  0 
-370 371  0 
-67 371  0 
-370 -59 369  0 
59 370  0 
-369 370  0 
369 58 57 56  0 
-58 -369  0 
-57 -369  0 
-56 -369  0 
-374 372 373  0 
-372 374  0 
-373 374  0 
-372 -161 162  0 
161 372  0 
-162 372  0 
373 -75 -78  0 
75 -373  0 
78 -373  0 
-377 375 376  0 
-375 377  0 
-376 377  0 
-375 161 -162  0 
-161 375  0 
162 375  0 
376 -74 -66 -67  0 
74 -376  0 
66 -376  0 
67 -376  0 
-379 378 78  0 
-378 379  0 
-78 379  0 
-378 -161 -162  0 
161 378  0 
162 378  0 
-380 -78 -79  0 
78 380  0 
79 380  0 
-624 385 623  0 
-385 624  0 
-623 624  0 
385 -381 -382 -383 -384  0 
381 -385  0 
382 -385  0 
383 -385  0 
384 -385  0 
-381 -69 163 164 -165  0 
69 381  0 
-163 381  0 
-164 381  0 
165 381  0 
-382 -68 -163 164 -165  0 
68 382  0 
163 382  0 
-164 382  0 
165 382  0 
-383 -67 163 -164 -165  0 
67 383  0 
-163 383  0 
164 383  0 
165 383  0 
-384 -66 -163 -164 -165  0 
66 384  0 
163 384  0 
164 384  0 
165 384  0 
623 -388 -394 -397 -400 -403 -406 -409 -412 -415 -418 -420 -422 -423 -622  0 
388 -623  0 
394 -623  0 
397 -623  0 
400 -623  0 
403 -623  0 
406 -623  0 
409 -623  0 
412 -623  0 
415 -623  0 
418 -623  0 
420 -623  0 
422 -623  0 
423 -623  0 
622 -623  0 
-388 387 91  0 
-387 388  0 
-91 388  0 
-387 -77 386  0 
77 387  0 
-386 387  0 
386 69 68 67 66  0 
-69 -386  0 
-68 -386  0 
-67 -386  0 
-66 -386  0 
-394 390 393  0 
-390 394  0 
-393 394  0 
-390 -76 389  0 
76 390  0 
-389 390  0 
389 69 68 67 66  0 
-69 -389  0 
-68 -389  0 
-67 -389  0 
-66 -389  0 
393 -88 -391 -392  0 
88 -393  0 
391 -393  0 
392 -393  0 
-391 80 84  0 
-80 391  0 
-84 391  0 
-392 81 83 91  0 
-81 392  0 
-83 392  0 
-91 392  0 
-397 396 90 89  0 
-396 397  0 
-90 397  0 
-89 397  0 
-396 -75 395  0 
75 396  0 
-395 396  0 
395 69 68 67 66  0 
-69 -395  0 
-68 -395  0 
-67 -395  0 
-66 -395  0 
-400 399 82 91  0 
-399 400  0 
-82 400  0 
-91 400  0 
-399 -74 398  0 
74 399  0 
-398 399  0 
398 69 68 67 66  0 
-69 -398  0 
-68 -398  0 
-67 -398  0 
-66 -398  0 
-403 402 89  0 
-402 403  0 
-89 403  0 
-402 -73 401  0 
73 402  0 
-401 402  0 
401 69 68 67 66  0 
-69 -401  0 
-68 -401  0 
-67 -401  0 
-66 -401  0 
-406 405 85  0 
-405 406  0 
-85 406  0 
-405 -72 404  0 
72 405  0 
-404 405  0 
404 69 68 67 66  0 
-69 -404  0 
-68 -404  0 
-67 -404  0 
-66 -404  0 
-409 408 82  0 
-408 409  0 
-82 409  0 
-408 -71 407  0 
71 408  0 
-407 408  0 
407 69 68 67 66  0 
-69 -407  0 
-68 -407  0 
-67 -407  0 
-66 -407  0 
-412 411 80  0 
-411 412  0 
-80 412  0 
-411 -70 410  0 
70 411  0 
-410 411  0 
410 69 68 67 66  0 
-69 -410  0 
-68 -410  0 
-67 -410  0 
-66 -410  0 
-415 413 414  0 
-413 415  0 
-414 415  0 
-413 163 164 -165  0 
-163 413  0 
-164 413  0 
165 413  0 
414 -87 -91 -80  0 
87 -414  0 
91 -414  0 
80 -414  0 
-418 416 417  0 
-416 418  0 
-417 418  0 
-416 -163 164 -165  0 
163 416  0 
-164 416  0 
165 416  0 
417 -86 -90  0 
86 -417  0 
90 -417  0 
-420 419 90  0 
-419 420  0 
-90 420  0 
-419 163 -164 -165  0 
-163 419  0 
164 419  0 
165 419  0 
-422 421 89  0 
-421 422  0 
-89 422  0 
-421 -163 -164 -165  0 
163 421  0 
164 421  0 
165 421  0 
-423 -90 -91  0 
90 423  0 
91 423  0 
-622 427 621  0 
-427 622  0 
-621 622  0 
427 -424 -425 -426  0 
424 -427  0 
425 -427  0 
426 -427  0 
-424 -82 -166 167  0 
82 424  0 
166 424  0 
-167 424  0 
-425 -81 166 -167  0 
81 425  0 
-166 425  0 
167 425  0 
-426 -80 -166 -167  0 
80 426  0 
166 426  0 
167 426  0 
621 -430 -436 -440 -443 -446 -449 -452 -455 -458 -460 -461 -620  0 
430 -621  0 
436 -621  0 
440 -621  0 
443 -621  0 
446 -621  0 
449 -621  0 
452 -621  0 
455 -621  0 
458 -621  0 
460 -621  0 
461 -621  0 
620 -621  0 
-430 429 101  0 
-429 430  0 
-101 430  0 
-429 -89 428  0 
89 429  0 
-428 429  0 
428 82 81 80  0 
-82 -428  0 
-81 -428  0 
-80 -428  0 
-436 432 435  0 
-432 436  0 
-435 436  0 
-432 -88 431  0 
88 432  0 
-431 432  0 
431 82 81 80  0 
-82 -431  0 
-81 -431  0 
-80 -431  0 
435 -98 -433 -434  0 
98 -435  0 
433 -435  0 
434 -435  0 
-433 92 96  0 
-92 433  0 
-96 433  0 
-434 93 95 101  0 
-93 434  0 
-95 434  0 
-101 434  0 
-440 438 439 97  0 
-438 440  0 
-439 440  0 
-97 440  0 
-438 -87 437  0 
87 438  0 
-437 438  0 
437 82 81 80  0 
-82 -437  0 
-81 -437  0 
-80 -437  0 
439 -101 -92  0 
101 -439  0 
92 -439  0 
-443 442 100 99  0 
-442 443  0 
-100 443  0 
-99 443  0 
-442 -86 441  0 
86 442  0 
-441 442  0 
441 82 81 80  0 
-82 -441  0 
-81 -441  0 
-80 -441  0 
-446 445 94 101  0 
-445 446  0 
-94 446  0 
-101 446  0 
-445 -85 444  0 
85 445  0 
-444 445  0 
444 82 81 80  0 
-82 -444  0 
-81 -444  0 
-80 -444  0 
-449 448 99  0 
-448 449  0 
-99 449  0 
-448 -84 447  0 
84 448  0 
-447 448  0 
447 82 81 80  0 
-82 -447  0 
-81 -447  0 
-80 -447  0 
-452 451 92  0 
-451 452  0 
-92 452  0 
-451 -83 450  0 
83 451  0 
-450 451  0 
450 82 81 80  0 
-82 -450  0 
-81 -450  0 
-80 -450  0 
-455 453 454  0 
-453 455  0 
-454 455  0 
-453 -166 167  0 
166 453  0 
-167 453  0 
454 -101 -92  0 
101 -454  0 
92 -454  0 
-458 456 457  0 
-456 458  0 
-457 458  0 
-456 166 -167  0 
-166 456  0 
167 456  0 
457 -97 -100  0 
97 -457  0 
100 -457  0 
-460 459 100  0 
-459 460  0 
-100 460  0 
-459 -166 -167  0 
166 459  0 
167 459  0 
-461 -100 -101  0 
100 461  0 
101 461  0 
-620 465 619  0 
-465 620  0 
-619 620  0 
465 -462 -463 -464  0 
462 -465  0 
463 -465  0 
464 -465  0 
-462 -94 -168 169  0 
94 462  0 
168 462  0 
-169 462  0 
-463 -93 168 -169  0 
93 463  0 
-168 463  0 
169 463  0 
-464 -92 -168 -169  0 
92 464  0 
168 464  0 
169 464  0 
619 -468 -474 -477 -480 -483 -486 -489 -491 -492 -618  0 
468 -619  0 
474 -619  0 
477 -619  0 
480 -619  0 
483 -619  0 
486 -619  0 
489 -619  0 
491 -619  0 
492 -619  0 
618 -619  0 
-468 467 110  0 
-467 468  0 
-110 468  0 
-467 -99 466  0 
99 467  0 
-466 467  0 
466 94 93 92  0 
-94 -466  0 
-93 -466  0 
-92 -466  0 
-474 470 473  0 
-470 474  0 
-473 474  0 
-470 -98 469  0 
98 470  0 
-469 470  0 
469 94 93 92  0 
-94 -469  0 
-93 -469  0 
-92 -469  0 
473 -107 -471 -472  0 
107 -473  0 
471 -473  0 
472 -473  0 
-471 102 105  0 
-102 471  0 
-105 471  0 
-472 103 104 110  0 
-103 472  0 
-104 472  0 
-110 472  0 
-477 476 109 108  0 
-476 477  0 
-109 477  0 
-108 477  0 
-476 -97 475  0 
97 476  0 
-475 476  0 
475 94 93 92  0 
-94 -475  0 
-93 -475  0 
-92 -475  0 
-480 479 108  0 
-479 480  0 
-108 480  0 
-479 -96 478  0 
96 479  0 
-478 479  0 
478 94 93 92  0 
-94 -478  0 
-93 -478  0 
-92 -478  0 
-483 482 102  0 
-482 483  0 
-102 483  0 
-482 -95 481  0 
95 482  0 
-481 482  0 
481 94 93 92  0 
-94 -481  0 
-93 -481  0 
-92 -481  0 
-486 484 485  0 
-484 486  0 
-485 486  0 
-484 -168 169  0 
168 484  0 
-169 484  0 
485 -110 -102  0 
110 -485  0 
102 -485  0 
-489 487 488  0 
-487 489  0 
-488 489  0 
-487 168 -169  0 
-168 487  0 
169 487  0 
488 -106 -109  0 
106 -488  0 
109 -488  0 
-491 490 109  0 
-490 491  0 
-109 491  0 
-490 -168 -169  0 
168 490  0 
169 490  0 
-492 -109 -110  0 
109 492  0 
110 492  0 
-618 495 617  0 
-495 618  0 
-617 618  0 
495 -493 -494  0 
493 -495  0 
494 -495  0 
-493 -103 170 -171  0 
103 493  0 
-170 493  0 
171 493  0 
-494 -102 -170 -171  0 
102 494  0 
170 494  0 
171 494  0 
617 -498 -504 -507 -510 -513 -516 -518 -519 -616  0 
498 -617  0 
504 -617  0 
507 -617  0 
510 -617  0 
513 -617  0 
516 -617  0 
518 -617  0 
519 -617  0 
616 -617  0 
-498 497 119  0 
-497 498  0 
-119 498  0 
-497 -108 496  0 
108 497  0 
-496 497  0 
496 103 102  0 
-103 -496  0 
-102 -496  0 
-504 500 503  0 
-500 504  0 
-503 504  0 
-500 -107 499  0 
107 500  0 
-499 500  0 
499 103 102  0 
-103 -499  0 
-102 -499  0 
503 -116 -501 -502  0 
116 -503  0 
501 -503  0 
502 -503  0 
-501 111 114  0 
-111 501  0 
-114 501  0 
-502 112 113 119  0 
-112 502  0 
-113 502  0 
-119 502  0 
-507 506 118 117  0 
-506 507  0 
-118 507  0 
-117 507  0 
-506 -106 505  0 
106 506  0 
-505 506  0 
505 103 102  0 
-103 -505  0 
-102 -505  0 
-510 509 117  0 
-509 510  0 
-117 510  0 
-509 -105 508  0 
105 509  0 
-508 509  0 
508 103 102  0 
-103 -508  0 
-102 -508  0 
-513 512 111  0 
-512 513  0 
-111 513  0 
-512 -104 511  0 
104 512  0 
-511 512  0 
511 103 102  0 
-103 -511  0 
-102 -511  0 
-516 514 515  0 
-514 516  0 
-515 516  0 
-514 170 -171  0 
-170 514  0 
171 514  0 
515 -115 -118  0 
115 -515  0 
118 -515  0 
-518 517 118  0 
-517 518  0 
-118 518  0 
-517 -170 -171  0 
170 517  0 
171 517  0 
-519 -118 -119  0 
118 519  0 
119 519  0 
-616 522 615  0 
-522 616  0 
-615 616  0 
522 -520 -521  0 
520 -522  0 
521 -522  0 
-520 -112 172 -173  0 
112 520  0 
-172 520  0 
173 520  0 
-521 -111 -172 -173  0 
111 521  0 
172 521  0 
173 521  0 
615 -525 -531 -534 -537 -540 -543 -545 -546 -614  0 
525 -615  0 
531 -615  0 
534 -615  0 
537 -615  0 
540 -615  0 
543 -615  0 
545 -615  0 
546 -615  0 
614 -615  0 
-525 524 128  0 
-524 525  0 
-128 525  0 
-524 -117 523  0 
117 524  0 
-523 524  0 
523 112 111  0 
-112 -523  0 
-111 -523  0 
-531 527 530  0 
-527 531  0 
-530 531  0 
-527 -116 526  0 
116 527  0 
-526 527  0 
526 112 111  0 
-112 -526  0 
-111 -526  0 
530 -125 -528 -529  0 
125 -530  0 
528 -530  0 
529 -530  0 
-528 120 123  0 
-120 528  0 
-123 528  0 
-529 121 122 128  0 
-121 529  0 
-122 529  0 
-128 529  0 
-534 533 127 126  0 
-533 534  0 
-127 534  0 
-126 534  0 
-533 -115 532  0 
115 533  0 
-532 533  0 
532 112 111  0 
-112 -532  0 
-111 -532  0 
-537 536 126  0 
-536 537  0 
-126 537  0 
-536 -114 535  0 
114 536  0 
-535 536  0 
535 112 111  0 
-112 -535  0 
-111 -535  0 
-540 539 120  0 
-539 540  0 
-120 540  0 
-539 -113 538  0 
113 539  0 
-538 539  0 
538 112 111  0 
-112 -538  0 
-111 -538  0 
-543 541 542  0 
-541 543  0 
-542 543  0 
-541 172 -173  0 
-172 541  0 
173 541  0 
542 -124 -127  0 
124 -542  0 
127 -542  0 
-545 544 127  0 
-544 545  0 
-127 545  0 
-544 -172 -173  0 
172 544  0 
173 544  0 
-546 -127 -128  0 
127 546  0 
128 546  0 
-614 549 613  0 
-549 614  0 
-613 614  0 
549 -547 -548  0 
547 -549  0 
548 -549  0 
-547 -121 174 -175  0 
121 547  0 
-174 547  0 
175 547  0 
-548 -120 -174 -175  0 
120 548  0 
174 548  0 
175 548  0 
613 -552 -558 -561 -564 -567 -570 -572 -573 -612  0 
552 -613  0 
558 -613  0 
561 -613  0 
564 -613  0 
567 -613  0 
570 -613  0 
572 -613  0 
573 -613  0 
612 -613  0 
-552 551 137  0 
-551 552  0 
-137 552  0 
-551 -126 550  0 
126 551  0 
-550 551  0 
550 121 120  0 
-121 -550  0 
-120 -550  0 
-558 554 557  0 
-554 558  0 
-557 558  0 
-554 -125 553  0 
125 554  0 
-553 554  0 
553 121 120  0 
-121 -553  0 
-120 -553  0 
557 -133 -555 -556  0 
133 -557  0 
555 -557  0 
556 -557  0 
-555 129 132  0 
-129 555  0 
-132 555  0 
-556 130 131 137  0 
-130 556  0 
-131 556  0 
-137 556  0 
-561 560 136 135  0 
-560 561  0 
-136 561  0 
-135 561  0 
-560 -124 559  0 
124 560  0 
-559 560  0 
559 121 120  0 
-121 -559  0 
-120 -559  0 
-564 563 135  0 
-563 564  0 
-135 564  0 
-563 -123 562  0 
123 563  0 
-562 563  0 
562 121 120  0 
-121 -562  0 
-120 -562  0 
-567 566 129  0 
-566 567  0 
-129 567  0 
-566 -122 565  0 
122 566  0 
-565 566  0 
565 121 120  0 
-121 -565  0 
-120 -565  0 
-570 568 569  0 
-568 570  0 
-569 570  0 
-568 174 -175  0 
-174 568  0 
175 568  0 
569 -134 -136  0 
134 -569  0 
136 -569  0 
-572 571 136  0 
-571 572  0 
-136 572  0 
-571 -174 -175  0 
174 571  0 
175 571  0 
-573 -136 -137  0 
136 573  0 
137 573  0 
-612 576 611  0 
-576 612  0 
-611 612  0 
576 -574 -575  0 
574 -576  0 
575 -576  0 
-574 -130 176 -177  0 
130 574  0 
-176 574  0 
177 574  0 
-575 -129 -176 -177  0 
129 575  0 
176 575  0 
177 575  0 
611 -579 -582 -585 -588 -591 -594 -596 -597 -610  0 
579 -611  0 
582 -611  0 
585 -611  0 
588 -611  0 
591 -611  0 
594 -611  0 
596 -611  0 
597 -611  0 
610 -611  0 
-579 578 143  0 
-578 579  0 
-143 579  0 
-578 -135 577  0 
135 578  0 
-577 578  0 
577 130 129  0 
-130 -577  0 
-129 -577  0 
-582 581 142 141  0 
-581 582  0 
-142 582  0 
-141 582  0 
-581 -134 580  0 
134 581  0 
-580 581  0 
580 130 129  0 
-130 -580  0 
-129 -580  0 
-585 584 138 139  0 
-584 585  0 
-138 585  0 
-139 585  0 
-584 -133 583  0 
133 584  0 
-583 584  0 
583 130 129  0 
-130 -583  0 
-129 -583  0 
-588 587 141  0 
-587 588  0 
-141 588  0 
-587 -132 586  0 
132 587  0 
-586 587  0 
586 130 129  0 
-130 -586  0 
-129 -586  0 
-591 590 138  0 
-590 591  0 
-138 591  0 
-590 -131 589  0 
131 590  0 
-589 590  0 
589 130 129  0 
-130 -589  0 
-129 -589  0 
-594 592 593  0 
-592 594  0 
-593 594  0 
-592 176 -177  0 
-176 592  0 
177 592  0 
593 -140 -142  0 
140 -593  0 
142 -593  0 
-596 595 142  0 
-595 596  0 
-142 596  0 
-595 -176 -177  0 
176 595  0 
177 595  0 
-597 -142 -143  0 
142 597  0 
143 597  0 
-610 598 609  0 
-598 610  0 
-609 610  0 
-598 -178 -138  0 
178 598  0 
138 598  0 
609 -599 -601 -603 -605 -606 -608  0 
599 -609  0 
601 -609  0 
603 -609  0 
605 -609  0 
606 -609  0 
608 -609  0 
-599 -178 145  0 
178 599  0 
-145 599  0 
-601 600 146  0 
-600 601  0 
-146 601  0 
-600 -141 -138  0 
141 600  0 
138 600  0 
-603 602 145 144  0 
-602 603  0 
-145 603  0 
-144 603  0 
-602 -140 -138  0 
140 602  0 
138 602  0 
-605 604 144  0 
-604 605  0 
-144 605  0 
-604 -139 -138  0 
139 604  0 
138 604  0 
-606 -145 -146  0 
145 606  0 
146 606  0 
-608 607 147  0 
-607 608  0 
-147 608  0 
607  0 
